results_rootrelaxation/bin012_070_014.srr.sol
solution status: optimal solution found
objective value:                     7.93525179856115
_var570_                           0.0467625899280576 	(obj:0)
_var674_                           0.0719424460431659 	(obj:1)
_var675_                           0.0467625899280571 	(obj:1)
_var694_                           0.0647482014388477 	(obj:1)
_var703_                            0.496402877697841 	(obj:1)
_var725_                            0.190647482014389 	(obj:2)
_var734_                            0.568345323741007 	(obj:0)
_var743_                            0.384892086330935 	(obj:0)
_var749_                            0.600719424460431 	(obj:2)
_var752_                            0.366906474820145 	(obj:0)
_var755_                             0.16546762589928 	(obj:0)
_var761_                            0.399280575539569 	(obj:1)
_var762_                            0.079136690647482 	(obj:0)
_var776_                            0.212230215827337 	(obj:0)
_var777_                            0.384892086330935 	(obj:0)
_var779_                           0.0467625899280576 	(obj:0)
_var784_                           0.0755395683453237 	(obj:0)
_var791_                             0.31294964028777 	(obj:1)
_var795_                            0.327338129496403 	(obj:1)
_var800_                            0.241007194244604 	(obj:0)
_var814_                            0.161870503597123 	(obj:1)
_var818_                             0.31294964028777 	(obj:0)
_var823_                            0.284172661870503 	(obj:0)
_var836_                            0.438848920863311 	(obj:1)
_var837_                           0.0215827338129492 	(obj:1)
_var838_                            0.158273381294964 	(obj:1)
_var839_                            0.194244604316546 	(obj:1)
_var841_                             0.12589928057554 	(obj:2)
_var842_                            0.402877697841728 	(obj:0)
_var844_                            0.158273381294964 	(obj:1)
_var848_                           0.0431654676258988 	(obj:1)
_var849_                            0.140287769784173 	(obj:0)
_var851_                            0.356115107913668 	(obj:2)
_var853_                            0.158273381294964 	(obj:0)
_var854_                           0.0323741007194255 	(obj:0)
_var859_                            0.158273381294964 	(obj:1)
_var861_                            0.158273381294964 	(obj:0)
_var865_                            0.276978417266187 	(obj:0)
_var867_                            0.104316546762589 	(obj:1)
_var868_                          0.00359712230215894 	(obj:2)
_var873_                           0.0215827338129498 	(obj:1)
_var875_                            0.115107913669065 	(obj:1)
_var877_                           0.0935251798561144 	(obj:1)
_var881_                           0.0755395683453234 	(obj:1)
_var882_                            0.453237410071942 	(obj:2)
_var883_                             0.26978417266187 	(obj:0)
_var885_                           0.0647482014388497 	(obj:2)
_var887_                           0.0719424460431648 	(obj:1)
_var890_                           0.0431654676258987 	(obj:3)
_var895_                             0.18705035971223 	(obj:1)
_var897_                            0.111510791366907 	(obj:0)
_var899_                           0.0215827338129512 	(obj:2)
_var901_                           0.0647482014388494 	(obj:0)
_var902_                            0.136690647482013 	(obj:1)
_var906_                            0.143884892086331 	(obj:0)
_var908_                            0.122302158273383 	(obj:1)
_var909_                            0.169064748201439 	(obj:1)
_var911_                           0.0395683453237402 	(obj:0)
_var912_                           0.0215827338129492 	(obj:1)
